\ENCODING=ISO-8859-1
\Problem name: ilog.cplex

Minimize
 obj: x1 + x2 + x3 + x4 + x5 + x6 + x7 + x8 + x9 + x10 + x11 + x12 + x13 + x14
      + x15 + x16 + x17 + x18 + x19 + x20 + x21 + x22
Subject To
 c1:  x1 + x45  = 1
 c3:  x2 + x45  = 1
 c5:  x3  = 1
 c7:  x4  = 1
 c9:  x5 + x45  = 1
 c11: x6  = 1
 c13: x7 + x45  = 1
 c15: x8 + x45  = 1
 c17: x9  = 1
 c19: x10  = 1
 c21: x11  = 1
 c23: x12  = 1
 c25: x13  = 1
 c26: x14  = 1
 c27: x15  = 1
 c28: x16  = 1
 c29: x17  = 1
 c30: x18  = 1
 c31: x19  = 1
 c32: x20  = 1
 c33: x21  = 1
 c34: x22  = 1
 c35: x45 <= 1
Bounds
 0 <= x1 <= 1
 0 <= x2 <= 1
 0 <= x3 <= 1
 0 <= x4 <= 1
 0 <= x5 <= 1
 0 <= x6 <= 1
 0 <= x7 <= 1
 0 <= x8 <= 1
 0 <= x9 <= 1
 0 <= x10 <= 1
 0 <= x11 <= 1
 0 <= x12 <= 1
 0 <= x13 <= 1
 0 <= x14 <= 1
 0 <= x15 <= 1
 0 <= x16 <= 1
 0 <= x17 <= 1
 0 <= x18 <= 1
 0 <= x19 <= 1
 0 <= x20 <= 1
 0 <= x21 <= 1
 0 <= x22 <= 1
 0 <= x45 <= 1
End
